p cnf 29 21
-1 20 0 
-1 -2 -3 18 21 0 
-4 -5 20 0 
-5 21 0 
-6 22 -11 0 
-6 23 0 
-5 20 0 
-7 21 0 
-7 24 0 
-8 25 -5 0 
-9 12 -10 26 0 
-5 -11 21 0 
-12 9 -13 27 0 
-7 20 0 
-12 9 -14 25 -5 0 
-9 12 -15 28 0 
-16 28 0 
-17 29 0 
-6 26 0 
-18 3 -19 29 0 
-8 27 0 
